/*********************************************
 * OPL Data
 * Optimal mix: data for "perfume" instance
 *********************************************/

I = { "rose","lily","violet"};
J = { "one", "two" };
 
D = [27,20,9];

P = [130,100];

Q = [
 	[1.5 , 1.0],
 	[1.0 , 1.0],
 	[0.3 , 0.5]
];
 
 